\ This file has been generated by DOcplex
\ ENCODING=ISO-8859-1
\Problem name: Battery_Energy_Storage_System228

Maximize
 obj: 10.590000000000 quantity_discharge_1
      + 10.280000000000 quantity_discharge_2
      + 11.260000000000 quantity_discharge_3
      + 14.570000000000 quantity_discharge_4
      + 18.760000000000 quantity_discharge_5
      + 121.020000000000 quantity_discharge_6
      + 39.060000000000 quantity_discharge_7
      + 41.970000000000 quantity_discharge_8
      + 19.070000000000 quantity_discharge_9
      + 26.540000000000 quantity_discharge_10
      + 20.670000000000 quantity_discharge_11
      + 19.780000000000 quantity_discharge_12
      + 15.980000000000 quantity_discharge_13
      + 14.320000000000 quantity_discharge_14
      + 16.660000000000 quantity_discharge_15
      + 19.060000000000 quantity_discharge_16
      + 20.070000000000 quantity_discharge_17
      + 23.140000000000 quantity_discharge_18
      + 28.270000000000 quantity_discharge_19
      + 27.020000000000 quantity_discharge_20
      + 19.650000000000 quantity_discharge_21
      + 16.980000000000 quantity_discharge_22
      + 12.320000000000 quantity_discharge_23
      + 11.870000000000 quantity_discharge_24
      - 10.590000000000 quantity_charge_1 - 10.280000000000 quantity_charge_2
      - 11.260000000000 quantity_charge_3 - 14.570000000000 quantity_charge_4
      - 18.760000000000 quantity_charge_5 - 121.020000000000 quantity_charge_6
      - 39.060000000000 quantity_charge_7 - 41.970000000000 quantity_charge_8
      - 19.070000000000 quantity_charge_9 - 26.540000000000 quantity_charge_10
      - 20.670000000000 quantity_charge_11 - 19.780000000000 quantity_charge_12
      - 15.980000000000 quantity_charge_13 - 14.320000000000 quantity_charge_14
      - 16.660000000000 quantity_charge_15 - 19.060000000000 quantity_charge_16
      - 20.070000000000 quantity_charge_17 - 23.140000000000 quantity_charge_18
      - 28.270000000000 quantity_charge_19 - 27.020000000000 quantity_charge_20
      - 19.650000000000 quantity_charge_21 - 16.980000000000 quantity_charge_22
      - 12.320000000000 quantity_charge_23 - 11.870000000000 quantity_charge_24
      + 1.480000000000 quantity_regulation_up_1
      + 1.220000000000 quantity_regulation_up_2
      + 1.290000000000 quantity_regulation_up_3
      + 1.300000000000 quantity_regulation_up_4
      + 2.210000000000 quantity_regulation_up_5
      + 3.980000000000 quantity_regulation_up_6 + 10 quantity_regulation_up_7
      + 7 quantity_regulation_up_8 + 4.270000000000 quantity_regulation_up_9
      + 3.950000000000 quantity_regulation_up_10
      + 3.090000000000 quantity_regulation_up_11
      + 2.710000000000 quantity_regulation_up_12
      + 3.890000000000 quantity_regulation_up_13
      + 4.420000000000 quantity_regulation_up_14
      + 3.490000000000 quantity_regulation_up_15
      + 6.510000000000 quantity_regulation_up_16
      + 3.430000000000 quantity_regulation_up_17
      + 15.460000000000 quantity_regulation_up_18
      + 23.470000000000 quantity_regulation_up_19
      + 3.500000000000 quantity_regulation_up_20
      + 2.080000000000 quantity_regulation_up_21
      + 1.240000000000 quantity_regulation_up_22
      + 1.480000000000 quantity_regulation_up_23
      + 1.450000000000 quantity_regulation_up_24
      + 3.990000000000 quantity_regulation_down_1
      + 2.980000000000 quantity_regulation_down_2
      + 1.980000000000 quantity_regulation_down_3
      + 1.800000000000 quantity_regulation_down_4
      + 4.520000000000 quantity_regulation_down_5
      + 7.490000000000 quantity_regulation_down_6
      + 6.170000000000 quantity_regulation_down_7 + 7 quantity_regulation_down_8
      + 23.690000000000 quantity_regulation_down_9
      + 7 quantity_regulation_down_10
      + 5.010000000000 quantity_regulation_down_11
      + 5.200000000000 quantity_regulation_down_12
      + 6.380000000000 quantity_regulation_down_13
      + 6.910000000000 quantity_regulation_down_14
      + 3.040000000000 quantity_regulation_down_15
      + 5.010000000000 quantity_regulation_down_16
      + 3 quantity_regulation_down_17 + 7 quantity_regulation_down_18
      + 5 quantity_regulation_down_19
      + 2.980000000000 quantity_regulation_down_20
      + 2.580000000000 quantity_regulation_down_21
      + 2.190000000000 quantity_regulation_down_22
      + 3.390000000000 quantity_regulation_down_23
      + 3.390000000000 quantity_regulation_down_24
Subject To
 state_of_charge_(2,_2,_28): state_of_charge_2
                             + 0.900000000000 quantity_discharge_2
                             - 0.900000000000 quantity_charge_2
                             - 0.090000000000 quantity_regulation_up_2
                             - 0.090000000000 quantity_regulation_down_2
                             - state_of_charge_1 = 0
 state_of_charge_(2,_3,_28): state_of_charge_3
                             + 0.900000000000 quantity_discharge_3
                             - 0.900000000000 quantity_charge_3
                             - 0.090000000000 quantity_regulation_up_3
                             - 0.090000000000 quantity_regulation_down_3
                             - state_of_charge_2 = 0
 state_of_charge_(2,_4,_28): state_of_charge_4
                             + 0.900000000000 quantity_discharge_4
                             - 0.900000000000 quantity_charge_4
                             - 0.090000000000 quantity_regulation_up_4
                             - 0.090000000000 quantity_regulation_down_4
                             - state_of_charge_3 = 0
 state_of_charge_(2,_5,_28): state_of_charge_5
                             + 0.900000000000 quantity_discharge_5
                             - 0.900000000000 quantity_charge_5
                             - 0.090000000000 quantity_regulation_up_5
                             - 0.090000000000 quantity_regulation_down_5
                             - state_of_charge_4 = 0
 state_of_charge_(2,_6,_28): state_of_charge_6
                             + 0.900000000000 quantity_discharge_6
                             - 0.900000000000 quantity_charge_6
                             - 0.090000000000 quantity_regulation_up_6
                             - 0.090000000000 quantity_regulation_down_6
                             - state_of_charge_5 = 0
 state_of_charge_(2,_7,_28): state_of_charge_7
                             + 0.900000000000 quantity_discharge_7
                             - 0.900000000000 quantity_charge_7
                             - 0.090000000000 quantity_regulation_up_7
                             - 0.090000000000 quantity_regulation_down_7
                             - state_of_charge_6 = 0
 state_of_charge_(2,_8,_28): state_of_charge_8
                             + 0.900000000000 quantity_discharge_8
                             - 0.900000000000 quantity_charge_8
                             - 0.090000000000 quantity_regulation_up_8
                             - 0.090000000000 quantity_regulation_down_8
                             - state_of_charge_7 = 0
 state_of_charge_(2,_9,_28): state_of_charge_9
                             + 0.900000000000 quantity_discharge_9
                             - 0.900000000000 quantity_charge_9
                             - 0.090000000000 quantity_regulation_up_9
                             - 0.090000000000 quantity_regulation_down_9
                             - state_of_charge_8 = 0
 state_of_charge_(2,_10,_28): state_of_charge_10
                              + 0.900000000000 quantity_discharge_10
                              - 0.900000000000 quantity_charge_10
                              - 0.090000000000 quantity_regulation_up_10
                              - 0.090000000000 quantity_regulation_down_10
                              - state_of_charge_9 = 0
 state_of_charge_(2,_11,_28): state_of_charge_11
                              + 0.900000000000 quantity_discharge_11
                              - 0.900000000000 quantity_charge_11
                              - 0.090000000000 quantity_regulation_up_11
                              - 0.090000000000 quantity_regulation_down_11
                              - state_of_charge_10 = 0
 state_of_charge_(2,_12,_28): state_of_charge_12
                              + 0.900000000000 quantity_discharge_12
                              - 0.900000000000 quantity_charge_12
                              - 0.090000000000 quantity_regulation_up_12
                              - 0.090000000000 quantity_regulation_down_12
                              - state_of_charge_11 = 0
 state_of_charge_(2,_13,_28): state_of_charge_13
                              + 0.900000000000 quantity_discharge_13
                              - 0.900000000000 quantity_charge_13
                              - 0.090000000000 quantity_regulation_up_13
                              - 0.090000000000 quantity_regulation_down_13
                              - state_of_charge_12 = 0
 state_of_charge_(2,_14,_28): state_of_charge_14
                              + 0.900000000000 quantity_discharge_14
                              - 0.900000000000 quantity_charge_14
                              - 0.090000000000 quantity_regulation_up_14
                              - 0.090000000000 quantity_regulation_down_14
                              - state_of_charge_13 = 0
 state_of_charge_(2,_15,_28): state_of_charge_15
                              + 0.900000000000 quantity_discharge_15
                              - 0.900000000000 quantity_charge_15
                              - 0.090000000000 quantity_regulation_up_15
                              - 0.090000000000 quantity_regulation_down_15
                              - state_of_charge_14 = 0
 state_of_charge_(2,_16,_28): state_of_charge_16
                              + 0.900000000000 quantity_discharge_16
                              - 0.900000000000 quantity_charge_16
                              - 0.090000000000 quantity_regulation_up_16
                              - 0.090000000000 quantity_regulation_down_16
                              - state_of_charge_15 = 0
 state_of_charge_(2,_17,_28): state_of_charge_17
                              + 0.900000000000 quantity_discharge_17
                              - 0.900000000000 quantity_charge_17
                              - 0.090000000000 quantity_regulation_up_17
                              - 0.090000000000 quantity_regulation_down_17
                              - state_of_charge_16 = 0
 state_of_charge_(2,_18,_28): state_of_charge_18
                              + 0.900000000000 quantity_discharge_18
                              - 0.900000000000 quantity_charge_18
                              - 0.090000000000 quantity_regulation_up_18
                              - 0.090000000000 quantity_regulation_down_18
                              - state_of_charge_17 = 0
 state_of_charge_(2,_19,_28): state_of_charge_19
                              + 0.900000000000 quantity_discharge_19
                              - 0.900000000000 quantity_charge_19
                              - 0.090000000000 quantity_regulation_up_19
                              - 0.090000000000 quantity_regulation_down_19
                              - state_of_charge_18 = 0
 state_of_charge_(2,_20,_28): state_of_charge_20
                              + 0.900000000000 quantity_discharge_20
                              - 0.900000000000 quantity_charge_20
                              - 0.090000000000 quantity_regulation_up_20
                              - 0.090000000000 quantity_regulation_down_20
                              - state_of_charge_19 = 0
 state_of_charge_(2,_21,_28): state_of_charge_21
                              + 0.900000000000 quantity_discharge_21
                              - 0.900000000000 quantity_charge_21
                              - 0.090000000000 quantity_regulation_up_21
                              - 0.090000000000 quantity_regulation_down_21
                              - state_of_charge_20 = 0
 state_of_charge_(2,_22,_28): state_of_charge_22
                              + 0.900000000000 quantity_discharge_22
                              - 0.900000000000 quantity_charge_22
                              - 0.090000000000 quantity_regulation_up_22
                              - 0.090000000000 quantity_regulation_down_22
                              - state_of_charge_21 = 0
 state_of_charge_(2,_23,_28): state_of_charge_23
                              + 0.900000000000 quantity_discharge_23
                              - 0.900000000000 quantity_charge_23
                              - 0.090000000000 quantity_regulation_up_23
                              - 0.090000000000 quantity_regulation_down_23
                              - state_of_charge_22 = 0
 state_of_charge_(2,_24,_28): state_of_charge_24
                              + 0.900000000000 quantity_discharge_24
                              - 0.900000000000 quantity_charge_24
                              - 0.090000000000 quantity_regulation_up_24
                              - 0.090000000000 quantity_regulation_down_24
                              - state_of_charge_23 = 0
 initial_state_of_charge(2,_28): state_of_charge_1 = 100
 state_of_charge_upper_bound_(2,_1,_28): state_of_charge_1 <= 200
 state_of_charge_upper_bound_(2,_2,_28): state_of_charge_2 <= 200
 state_of_charge_upper_bound_(2,_3,_28): state_of_charge_3 <= 200
 state_of_charge_upper_bound_(2,_4,_28): state_of_charge_4 <= 200
 state_of_charge_upper_bound_(2,_5,_28): state_of_charge_5 <= 200
 state_of_charge_upper_bound_(2,_6,_28): state_of_charge_6 <= 200
 state_of_charge_upper_bound_(2,_7,_28): state_of_charge_7 <= 200
 state_of_charge_upper_bound_(2,_8,_28): state_of_charge_8 <= 200
 state_of_charge_upper_bound_(2,_9,_28): state_of_charge_9 <= 200
 state_of_charge_upper_bound_(2,_10,_28): state_of_charge_10 <= 200
 state_of_charge_upper_bound_(2,_11,_28): state_of_charge_11 <= 200
 state_of_charge_upper_bound_(2,_12,_28): state_of_charge_12 <= 200
 state_of_charge_upper_bound_(2,_13,_28): state_of_charge_13 <= 200
 state_of_charge_upper_bound_(2,_14,_28): state_of_charge_14 <= 200
 state_of_charge_upper_bound_(2,_15,_28): state_of_charge_15 <= 200
 state_of_charge_upper_bound_(2,_16,_28): state_of_charge_16 <= 200
 state_of_charge_upper_bound_(2,_17,_28): state_of_charge_17 <= 200
 state_of_charge_upper_bound_(2,_18,_28): state_of_charge_18 <= 200
 state_of_charge_upper_bound_(2,_19,_28): state_of_charge_19 <= 200
 state_of_charge_upper_bound_(2,_20,_28): state_of_charge_20 <= 200
 state_of_charge_upper_bound_(2,_21,_28): state_of_charge_21 <= 200
 state_of_charge_upper_bound_(2,_22,_28): state_of_charge_22 <= 200
 state_of_charge_upper_bound_(2,_23,_28): state_of_charge_23 <= 200
 state_of_charge_upper_bound_(2,_24,_28): state_of_charge_24 <= 200
 state_of_charge_lower_bound_(2,_1,_28): state_of_charge_1 >= 0
 state_of_charge_lower_bound_(2,_2,_28): state_of_charge_2 >= 0
 state_of_charge_lower_bound_(2,_3,_28): state_of_charge_3 >= 0
 state_of_charge_lower_bound_(2,_4,_28): state_of_charge_4 >= 0
 state_of_charge_lower_bound_(2,_5,_28): state_of_charge_5 >= 0
 state_of_charge_lower_bound_(2,_6,_28): state_of_charge_6 >= 0
 state_of_charge_lower_bound_(2,_7,_28): state_of_charge_7 >= 0
 state_of_charge_lower_bound_(2,_8,_28): state_of_charge_8 >= 0
 state_of_charge_lower_bound_(2,_9,_28): state_of_charge_9 >= 0
 state_of_charge_lower_bound_(2,_10,_28): state_of_charge_10 >= 0
 state_of_charge_lower_bound_(2,_11,_28): state_of_charge_11 >= 0
 state_of_charge_lower_bound_(2,_12,_28): state_of_charge_12 >= 0
 state_of_charge_lower_bound_(2,_13,_28): state_of_charge_13 >= 0
 state_of_charge_lower_bound_(2,_14,_28): state_of_charge_14 >= 0
 state_of_charge_lower_bound_(2,_15,_28): state_of_charge_15 >= 0
 state_of_charge_lower_bound_(2,_16,_28): state_of_charge_16 >= 0
 state_of_charge_lower_bound_(2,_17,_28): state_of_charge_17 >= 0
 state_of_charge_lower_bound_(2,_18,_28): state_of_charge_18 >= 0
 state_of_charge_lower_bound_(2,_19,_28): state_of_charge_19 >= 0
 state_of_charge_lower_bound_(2,_20,_28): state_of_charge_20 >= 0
 state_of_charge_lower_bound_(2,_21,_28): state_of_charge_21 >= 0
 state_of_charge_lower_bound_(2,_22,_28): state_of_charge_22 >= 0
 state_of_charge_lower_bound_(2,_23,_28): state_of_charge_23 >= 0
 state_of_charge_lower_bound_(2,_24,_28): state_of_charge_24 >= 0
 recharge_upper_bound_(2,_1,_28): quantity_charge_1 + quantity_regulation_down_1
                                   <= 100
 recharge_upper_bound_(2,_2,_28): quantity_charge_2 + quantity_regulation_down_2
                                   <= 100
 recharge_upper_bound_(2,_3,_28): quantity_charge_3 + quantity_regulation_down_3
                                   <= 100
 recharge_upper_bound_(2,_4,_28): quantity_charge_4 + quantity_regulation_down_4
                                   <= 100
 recharge_upper_bound_(2,_5,_28): quantity_charge_5 + quantity_regulation_down_5
                                   <= 100
 recharge_upper_bound_(2,_6,_28): quantity_charge_6 + quantity_regulation_down_6
                                   <= 100
 recharge_upper_bound_(2,_7,_28): quantity_charge_7 + quantity_regulation_down_7
                                   <= 100
 recharge_upper_bound_(2,_8,_28): quantity_charge_8 + quantity_regulation_down_8
                                   <= 100
 recharge_upper_bound_(2,_9,_28): quantity_charge_9 + quantity_regulation_down_9
                                   <= 100
 recharge_upper_bound_(2,_10,_28): quantity_charge_10
                                   + quantity_regulation_down_10 <= 100
 recharge_upper_bound_(2,_11,_28): quantity_charge_11
                                   + quantity_regulation_down_11 <= 100
 recharge_upper_bound_(2,_12,_28): quantity_charge_12
                                   + quantity_regulation_down_12 <= 100
 recharge_upper_bound_(2,_13,_28): quantity_charge_13
                                   + quantity_regulation_down_13 <= 100
 recharge_upper_bound_(2,_14,_28): quantity_charge_14
                                   + quantity_regulation_down_14 <= 100
 recharge_upper_bound_(2,_15,_28): quantity_charge_15
                                   + quantity_regulation_down_15 <= 100
 recharge_upper_bound_(2,_16,_28): quantity_charge_16
                                   + quantity_regulation_down_16 <= 100
 recharge_upper_bound_(2,_17,_28): quantity_charge_17
                                   + quantity_regulation_down_17 <= 100
 recharge_upper_bound_(2,_18,_28): quantity_charge_18
                                   + quantity_regulation_down_18 <= 100
 recharge_upper_bound_(2,_19,_28): quantity_charge_19
                                   + quantity_regulation_down_19 <= 100
 recharge_upper_bound_(2,_20,_28): quantity_charge_20
                                   + quantity_regulation_down_20 <= 100
 recharge_upper_bound_(2,_21,_28): quantity_charge_21
                                   + quantity_regulation_down_21 <= 100
 recharge_upper_bound_(2,_22,_28): quantity_charge_22
                                   + quantity_regulation_down_22 <= 100
 recharge_upper_bound_(2,_23,_28): quantity_charge_23
                                   + quantity_regulation_down_23 <= 100
 recharge_upper_bound_(2,_24,_28): quantity_charge_24
                                   + quantity_regulation_down_24 <= 100
 recharge_lower_bound_(2,_1,_28): quantity_charge_1 + quantity_regulation_down_1
                                   >= 0
 recharge_lower_bound_(2,_2,_28): quantity_charge_2 + quantity_regulation_down_2
                                   >= 0
 recharge_lower_bound_(2,_3,_28): quantity_charge_3 + quantity_regulation_down_3
                                   >= 0
 recharge_lower_bound_(2,_4,_28): quantity_charge_4 + quantity_regulation_down_4
                                   >= 0
 recharge_lower_bound_(2,_5,_28): quantity_charge_5 + quantity_regulation_down_5
                                   >= 0
 recharge_lower_bound_(2,_6,_28): quantity_charge_6 + quantity_regulation_down_6
                                   >= 0
 recharge_lower_bound_(2,_7,_28): quantity_charge_7 + quantity_regulation_down_7
                                   >= 0
 recharge_lower_bound_(2,_8,_28): quantity_charge_8 + quantity_regulation_down_8
                                   >= 0
 recharge_lower_bound_(2,_9,_28): quantity_charge_9 + quantity_regulation_down_9
                                   >= 0
 recharge_lower_bound_(2,_10,_28): quantity_charge_10
                                   + quantity_regulation_down_10 >= 0
 recharge_lower_bound_(2,_11,_28): quantity_charge_11
                                   + quantity_regulation_down_11 >= 0
 recharge_lower_bound_(2,_12,_28): quantity_charge_12
                                   + quantity_regulation_down_12 >= 0
 recharge_lower_bound_(2,_13,_28): quantity_charge_13
                                   + quantity_regulation_down_13 >= 0
 recharge_lower_bound_(2,_14,_28): quantity_charge_14
                                   + quantity_regulation_down_14 >= 0
 recharge_lower_bound_(2,_15,_28): quantity_charge_15
                                   + quantity_regulation_down_15 >= 0
 recharge_lower_bound_(2,_16,_28): quantity_charge_16
                                   + quantity_regulation_down_16 >= 0
 recharge_lower_bound_(2,_17,_28): quantity_charge_17
                                   + quantity_regulation_down_17 >= 0
 recharge_lower_bound_(2,_18,_28): quantity_charge_18
                                   + quantity_regulation_down_18 >= 0
 recharge_lower_bound_(2,_19,_28): quantity_charge_19
                                   + quantity_regulation_down_19 >= 0
 recharge_lower_bound_(2,_20,_28): quantity_charge_20
                                   + quantity_regulation_down_20 >= 0
 recharge_lower_bound_(2,_21,_28): quantity_charge_21
                                   + quantity_regulation_down_21 >= 0
 recharge_lower_bound_(2,_22,_28): quantity_charge_22
                                   + quantity_regulation_down_22 >= 0
 recharge_lower_bound_(2,_23,_28): quantity_charge_23
                                   + quantity_regulation_down_23 >= 0
 recharge_lower_bound_(2,_24,_28): quantity_charge_24
                                   + quantity_regulation_down_24 >= 0
 discharge_upper_bound_(2,_1,_28): quantity_discharge_1
                                   + quantity_regulation_up_1 <= 100
 discharge_upper_bound_(2,_2,_28): quantity_discharge_2
                                   + quantity_regulation_up_2 <= 100
 discharge_upper_bound_(2,_3,_28): quantity_discharge_3
                                   + quantity_regulation_up_3 <= 100
 discharge_upper_bound_(2,_4,_28): quantity_discharge_4
                                   + quantity_regulation_up_4 <= 100
 discharge_upper_bound_(2,_5,_28): quantity_discharge_5
                                   + quantity_regulation_up_5 <= 100
 discharge_upper_bound_(2,_6,_28): quantity_discharge_6
                                   + quantity_regulation_up_6 <= 100
 discharge_upper_bound_(2,_7,_28): quantity_discharge_7
                                   + quantity_regulation_up_7 <= 100
 discharge_upper_bound_(2,_8,_28): quantity_discharge_8
                                   + quantity_regulation_up_8 <= 100
 discharge_upper_bound_(2,_9,_28): quantity_discharge_9
                                   + quantity_regulation_up_9 <= 100
 discharge_upper_bound_(2,_10,_28): quantity_discharge_10
                                    + quantity_regulation_up_10 <= 100
 discharge_upper_bound_(2,_11,_28): quantity_discharge_11
                                    + quantity_regulation_up_11 <= 100
 discharge_upper_bound_(2,_12,_28): quantity_discharge_12
                                    + quantity_regulation_up_12 <= 100
 discharge_upper_bound_(2,_13,_28): quantity_discharge_13
                                    + quantity_regulation_up_13 <= 100
 discharge_upper_bound_(2,_14,_28): quantity_discharge_14
                                    + quantity_regulation_up_14 <= 100
 discharge_upper_bound_(2,_15,_28): quantity_discharge_15
                                    + quantity_regulation_up_15 <= 100
 discharge_upper_bound_(2,_16,_28): quantity_discharge_16
                                    + quantity_regulation_up_16 <= 100
 discharge_upper_bound_(2,_17,_28): quantity_discharge_17
                                    + quantity_regulation_up_17 <= 100
 discharge_upper_bound_(2,_18,_28): quantity_discharge_18
                                    + quantity_regulation_up_18 <= 100
 discharge_upper_bound_(2,_19,_28): quantity_discharge_19
                                    + quantity_regulation_up_19 <= 100
 discharge_upper_bound_(2,_20,_28): quantity_discharge_20
                                    + quantity_regulation_up_20 <= 100
 discharge_upper_bound_(2,_21,_28): quantity_discharge_21
                                    + quantity_regulation_up_21 <= 100
 discharge_upper_bound_(2,_22,_28): quantity_discharge_22
                                    + quantity_regulation_up_22 <= 100
 discharge_upper_bound_(2,_23,_28): quantity_discharge_23
                                    + quantity_regulation_up_23 <= 100
 discharge_upper_bound_(2,_24,_28): quantity_discharge_24
                                    + quantity_regulation_up_24 <= 100
 discharge_lower_bound_(2,_1,_28): quantity_discharge_1
                                   + quantity_regulation_up_1 >= 0
 discharge_lower_bound_(2,_2,_28): quantity_discharge_2
                                   + quantity_regulation_up_2 >= 0
 discharge_lower_bound_(2,_3,_28): quantity_discharge_3
                                   + quantity_regulation_up_3 >= 0
 discharge_lower_bound_(2,_4,_28): quantity_discharge_4
                                   + quantity_regulation_up_4 >= 0
 discharge_lower_bound_(2,_5,_28): quantity_discharge_5
                                   + quantity_regulation_up_5 >= 0
 discharge_lower_bound_(2,_6,_28): quantity_discharge_6
                                   + quantity_regulation_up_6 >= 0
 discharge_lower_bound_(2,_7,_28): quantity_discharge_7
                                   + quantity_regulation_up_7 >= 0
 discharge_lower_bound_(2,_8,_28): quantity_discharge_8
                                   + quantity_regulation_up_8 >= 0
 discharge_lower_bound_(2,_9,_28): quantity_discharge_9
                                   + quantity_regulation_up_9 >= 0
 discharge_lower_bound_(2,_10,_28): quantity_discharge_10
                                    + quantity_regulation_up_10 >= 0
 discharge_lower_bound_(2,_11,_28): quantity_discharge_11
                                    + quantity_regulation_up_11 >= 0
 discharge_lower_bound_(2,_12,_28): quantity_discharge_12
                                    + quantity_regulation_up_12 >= 0
 discharge_lower_bound_(2,_13,_28): quantity_discharge_13
                                    + quantity_regulation_up_13 >= 0
 discharge_lower_bound_(2,_14,_28): quantity_discharge_14
                                    + quantity_regulation_up_14 >= 0
 discharge_lower_bound_(2,_15,_28): quantity_discharge_15
                                    + quantity_regulation_up_15 >= 0
 discharge_lower_bound_(2,_16,_28): quantity_discharge_16
                                    + quantity_regulation_up_16 >= 0
 discharge_lower_bound_(2,_17,_28): quantity_discharge_17
                                    + quantity_regulation_up_17 >= 0
 discharge_lower_bound_(2,_18,_28): quantity_discharge_18
                                    + quantity_regulation_up_18 >= 0
 discharge_lower_bound_(2,_19,_28): quantity_discharge_19
                                    + quantity_regulation_up_19 >= 0
 discharge_lower_bound_(2,_20,_28): quantity_discharge_20
                                    + quantity_regulation_up_20 >= 0
 discharge_lower_bound_(2,_21,_28): quantity_discharge_21
                                    + quantity_regulation_up_21 >= 0
 discharge_lower_bound_(2,_22,_28): quantity_discharge_22
                                    + quantity_regulation_up_22 >= 0
 discharge_lower_bound_(2,_23,_28): quantity_discharge_23
                                    + quantity_regulation_up_23 >= 0
 discharge_lower_bound_(2,_24,_28): quantity_discharge_24
                                    + quantity_regulation_up_24 >= 0
 charge_cycle_constraint_(2,_28): quantity_charge_1 + quantity_charge_2
                                  + quantity_charge_3 + quantity_charge_4
                                  + quantity_charge_5 + quantity_charge_6
                                  + quantity_charge_7 + quantity_charge_8
                                  + quantity_charge_9 + quantity_charge_10
                                  + quantity_charge_11 + quantity_charge_12
                                  + quantity_charge_13 + quantity_charge_14
                                  + quantity_charge_15 + quantity_charge_16
                                  + quantity_charge_17 + quantity_charge_18
                                  + quantity_charge_19 + quantity_charge_20
                                  + quantity_charge_21 + quantity_charge_22
                                  + quantity_charge_23 + quantity_charge_24
                                  + quantity_regulation_down_1
                                  + quantity_regulation_down_2
                                  + quantity_regulation_down_3
                                  + quantity_regulation_down_4
                                  + quantity_regulation_down_5
                                  + quantity_regulation_down_6
                                  + quantity_regulation_down_7
                                  + quantity_regulation_down_8
                                  + quantity_regulation_down_9
                                  + quantity_regulation_down_10
                                  + quantity_regulation_down_11
                                  + quantity_regulation_down_12
                                  + quantity_regulation_down_13
                                  + quantity_regulation_down_14
                                  + quantity_regulation_down_15
                                  + quantity_regulation_down_16
                                  + quantity_regulation_down_17
                                  + quantity_regulation_down_18
                                  + quantity_regulation_down_19
                                  + quantity_regulation_down_20
                                  + quantity_regulation_down_21
                                  + quantity_regulation_down_22
                                  + quantity_regulation_down_23
                                  + quantity_regulation_down_24 <= 100
 discharge_cycle_constraint_(2,_28): quantity_discharge_1 + quantity_discharge_2
                                     + quantity_discharge_3
                                     + quantity_discharge_4
                                     + quantity_discharge_5
                                     + quantity_discharge_6
                                     + quantity_discharge_7
                                     + quantity_discharge_8
                                     + quantity_discharge_9
                                     + quantity_discharge_10
                                     + quantity_discharge_11
                                     + quantity_discharge_12
                                     + quantity_discharge_13
                                     + quantity_discharge_14
                                     + quantity_discharge_15
                                     + quantity_discharge_16
                                     + quantity_discharge_17
                                     + quantity_discharge_18
                                     + quantity_discharge_19
                                     + quantity_discharge_20
                                     + quantity_discharge_21
                                     + quantity_discharge_22
                                     + quantity_discharge_23
                                     + quantity_discharge_24
                                     + quantity_regulation_up_1
                                     + quantity_regulation_up_2
                                     + quantity_regulation_up_3
                                     + quantity_regulation_up_4
                                     + quantity_regulation_up_5
                                     + quantity_regulation_up_6
                                     + quantity_regulation_up_7
                                     + quantity_regulation_up_8
                                     + quantity_regulation_up_9
                                     + quantity_regulation_up_10
                                     + quantity_regulation_up_11
                                     + quantity_regulation_up_12
                                     + quantity_regulation_up_13
                                     + quantity_regulation_up_14
                                     + quantity_regulation_up_15
                                     + quantity_regulation_up_16
                                     + quantity_regulation_up_17
                                     + quantity_regulation_up_18
                                     + quantity_regulation_up_19
                                     + quantity_regulation_up_20
                                     + quantity_regulation_up_21
                                     + quantity_regulation_up_22
                                     + quantity_regulation_up_23
                                     + quantity_regulation_up_24 <= 100

Bounds
End
